171	32	4	54	
16	17	20	19

0	0	0	0	0	0	3	1	2	3
1	0	0	3	4	2	3	6	13	20
2	8	5	0	4	3	3	5	13	14
3	0	2	6	6	6	3	4	5	11
4	0	0	6	6	1	3	7	9	12
5	2	8	0	7	5	3	7	15	18
6	10	10	7	0	5	3	10	11	17
7	0	5	5	0	5	3	8	17	29
8	0	0	10	2	7	3	16	21	23
9	1	1	0	0	7	2	13	18
10	0	0	8	0	5	2	14	16
11	0	0	0	3	8	3	15	19	27
12	0	6	3	0	3	2	22	29
13	0	1	0	0	10	3	15	16	23
14	9	7	0	0	1	3	19	21	22
15	0	0	0	6	9	2	24	30
16	5	7	0	7	1	1	25
17	7	6	0	0	6	2	21	22
18	0	0	6	8	3	2	19	20
19	0	2	0	0	5	3	26	28	29
20	4	0	9	0	7	3	23	25	26
21	0	1	10	3	8	2	25	27
22	0	7	0	0	10	2	24	26
23	0	5	0	4	10	2	24	27
24	9	0	0	2	9	1	28
25	8	0	7	0	2	1	30
26	0	0	5	0	6	1	30
27	5	1	2	0	9	1	28
28	7	0	3	0	10	1	31
29	8	0	5	3	7	1	31
30	0	8	1	0	1	1	31
31	0	0	0	0	0	0
